p td 17 51
2 1
3 1
4 3
5 4
5 3
6 3
6 4
7 4
8 7
8 2
9 6
9 3
9 1
10 2
10 4
10 9
11 9
11 1
11 10
11 5
11 6
11 2
12 11
12 3
13 1
13 12
13 4
13 2
13 3
13 6
13 9
13 11
14 5
14 9
14 4
14 12
15 5
15 13
15 8
15 1
15 11
16 2
16 4
16 9
16 11
16 7
16 12
17 2
17 10
17 13
17 6
